NAME : rc_202.1.8504819.tour
COMMENT : Length = 8504819
COMMENT : Found by LKH [Keld Helsgaun] Tue May  2 05:51:22 2017
TYPE : TOUR
DIMENSION : 33
TOUR_SECTION
1
31
18
15
14
22
27
33
12
10
8
9
11
24
3
2
19
26
6
28
29
21
17
16
5
4
23
20
13
7
30
32
25
-1
EOF
